set VV := 0 1 2 3 4 5 6 7 8 9 10 ;
set VS := 0 1 2 3 4 5 6 7 8 9 10 11 12 13 14 15 16 17 18 19 20 21 22 23 24 25 ;
param cv := 
0 18
1 12
2 22
3 15
4 10
5 18
6 18
7 19
8 11
9 18
10 15
;
param cs := 
0 24
1 37
2 24
3 24
4 24
5 21
6 27
7 38
8 28
9 22
10 23
11 23
12 35
13 40
14 20
15 35
16 29
17 39
18 38
19 22
20 23
21 34
22 26
23 37
24 25
25 25
;
param bv:	 0 1 2 3 4 5 6 7 8 9 10 := 
		0 0 0 11 0 16 0 0 0 10 0 0 
		1 0 0 0 0 0 0 0 0 0 11 0 
		2 0 0 0 0 0 0 0 0 0 0 0 
		3 0 0 0 0 0 0 18 0 0 13 0 
		4 0 0 0 0 0 0 0 0 25 0 15 
		5 0 0 0 0 0 0 12 19 0 0 0 
		6 0 0 0 0 0 0 0 0 0 0 0 
		7 0 0 0 0 0 0 0 0 0 0 0 
		8 0 0 0 0 0 0 0 0 0 0 0 
		9 0 0 0 0 0 0 0 0 0 0 20 
		10 0 0 0 0 0 0 0 0 0 0 0 
;
param bs:	 0 1 2 3 4 5 6 7 8 9 10 11 12 13 14 15 16 17 18 19 20 21 22 23 24 25 := 
		0 0 0 0 22 0 0 0 0 0 0 33 0 0 0 0 0 0 34 0 0 0 0 0 0 0 29 
		1 0 0 0 0 0 0 37 0 0 0 0 34 0 0 0 0 0 0 0 0 0 0 0 0 0 0 
		2 0 0 0 0 0 0 30 0 0 0 0 0 0 0 0 20 0 0 0 0 25 0 40 0 0 0 
		3 22 0 0 0 0 0 23 0 0 0 0 0 0 0 0 0 0 24 0 0 0 0 22 0 0 0 
		4 0 0 0 0 0 0 0 0 0 0 0 0 0 0 0 0 0 32 36 0 0 0 21 0 0 0 
		5 0 0 0 0 0 0 0 0 35 0 0 0 0 0 0 0 0 28 0 26 0 29 0 0 0 0 
		6 0 37 30 23 0 0 0 0 0 0 0 27 0 0 28 0 0 0 0 0 0 0 0 0 0 0 
		7 0 0 0 0 0 0 0 0 0 0 0 0 0 0 0 0 0 0 0 0 0 0 0 0 26 0 
		8 0 0 0 0 0 35 0 0 0 0 0 0 26 0 0 0 0 0 0 35 0 0 0 0 21 0 
		9 0 0 0 0 0 0 0 0 0 0 0 0 36 0 25 0 23 0 0 0 0 0 0 0 30 0 
		10 33 0 0 0 0 0 0 0 0 0 0 0 0 0 31 0 20 0 30 0 0 0 0 0 0 0 
		11 0 34 0 0 0 0 27 0 0 0 0 0 0 0 0 0 0 29 0 0 33 0 0 0 0 26 
		12 0 0 0 0 0 0 0 0 26 36 0 0 0 0 0 0 0 0 0 0 0 28 0 0 24 0 
		13 0 0 0 0 0 0 0 0 0 0 0 0 0 0 0 0 0 0 0 0 0 0 0 24 0 0 
		14 0 0 0 0 0 0 28 0 0 25 31 0 0 0 0 0 0 0 0 0 0 0 0 0 0 0 
		15 0 0 20 0 0 0 0 0 0 0 0 0 0 0 0 0 0 0 0 0 0 0 0 0 0 0 
		16 0 0 0 0 0 0 0 0 0 23 20 0 0 0 0 0 0 0 0 0 0 29 0 0 0 0 
		17 34 0 0 24 32 28 0 0 0 0 0 29 0 0 0 0 0 0 0 0 0 0 33 0 0 0 
		18 0 0 0 0 36 0 0 0 0 0 30 0 0 0 0 0 0 0 0 0 0 0 38 0 0 0 
		19 0 0 0 0 0 26 0 0 35 0 0 0 0 0 0 0 0 0 0 0 0 0 0 0 0 0 
		20 0 0 25 0 0 0 0 0 0 0 0 33 0 0 0 0 0 0 0 0 0 26 0 39 0 0 
		21 0 0 0 0 0 29 0 0 0 0 0 0 28 0 0 0 29 0 0 0 26 0 0 0 0 0 
		22 0 0 40 22 21 0 0 0 0 0 0 0 0 0 0 0 0 33 38 0 0 0 0 0 0 24 
		23 0 0 0 0 0 0 0 0 0 0 0 0 0 24 0 0 0 0 0 0 39 0 0 0 32 0 
		24 0 0 0 0 0 0 0 26 21 30 0 0 24 0 0 0 0 0 0 0 0 0 0 32 0 0 
		25 29 0 0 0 0 0 0 0 0 0 0 26 0 0 0 0 0 0 0 0 0 0 24 0 0 0 
;
